p edge 40 263
e 1 3
e 1 4
e 1 5
e 1 9
e 1 11
e 1 12
e 1 14
e 1 15
e 1 18
e 1 21
e 1 25
e 1 28
e 1 29
e 2 5
e 2 6
e 2 7
e 2 8
e 2 9
e 2 10
e 2 11
e 2 15
e 2 16
e 2 20
e 2 22
e 2 30
e 2 31
e 2 32
e 2 33
e 2 34
e 2 37
e 3 5
e 3 6
e 3 8
e 3 12
e 3 15
e 3 16
e 3 17
e 3 21
e 3 27
e 3 31
e 3 33
e 3 38
e 3 40
e 4 7
e 4 10
e 4 15
e 4 17
e 4 21
e 4 22
e 4 25
e 4 27
e 4 30
e 4 33
e 4 36
e 4 39
e 4 40
e 5 10
e 5 11
e 5 14
e 5 15
e 5 16
e 5 18
e 5 21
e 5 22
e 5 24
e 5 25
e 5 31
e 5 32
e 5 39
e 6 9
e 6 10
e 6 13
e 6 14
e 6 19
e 6 25
e 6 27
e 6 29
e 6 32
e 6 40
e 7 8
e 7 13
e 7 17
e 7 19
e 7 20
e 7 23
e 7 24
e 7 26
e 7 33
e 7 35
e 7 38
e 7 39
e 8 9
e 8 13
e 8 14
e 8 15
e 8 20
e 8 26
e 8 28
e 8 31
e 8 32
e 8 33
e 8 35
e 8 38
e 8 40
e 9 13
e 9 15
e 9 16
e 9 19
e 9 23
e 9 24
e 9 30
e 9 31
e 9 32
e 9 37
e 9 38
e 9 39
e 10 14
e 10 20
e 10 27
e 10 29
e 10 32
e 10 35
e 10 37
e 10 38
e 10 39
e 11 14
e 11 20
e 11 22
e 11 24
e 11 25
e 11 28
e 11 33
e 11 35
e 12 14
e 12 17
e 12 20
e 12 21
e 12 24
e 12 25
e 12 31
e 12 33
e 12 34
e 12 40
e 13 17
e 13 18
e 13 25
e 13 26
e 13 27
e 13 28
e 13 31
e 13 34
e 13 37
e 13 39
e 14 16
e 14 18
e 14 21
e 14 22
e 14 39
e 14 40
e 15 20
e 15 21
e 15 22
e 15 23
e 15 24
e 15 26
e 15 27
e 15 30
e 15 34
e 16 18
e 16 27
e 16 28
e 16 30
e 16 34
e 16 36
e 16 38
e 17 18
e 17 20
e 17 22
e 17 24
e 17 30
e 17 31
e 17 32
e 18 19
e 18 20
e 18 21
e 18 22
e 18 25
e 18 28
e 18 31
e 18 34
e 18 35
e 18 36
e 19 20
e 19 23
e 19 27
e 19 37
e 20 25
e 20 31
e 20 34
e 20 36
e 20 40
e 21 23
e 21 24
e 21 29
e 21 30
e 21 32
e 21 40
e 22 23
e 22 25
e 22 33
e 22 34
e 22 35
e 22 36
e 22 37
e 22 40
e 23 24
e 23 29
e 23 30
e 23 31
e 23 32
e 23 33
e 23 34
e 23 36
e 23 40
e 24 31
e 24 32
e 24 37
e 24 39
e 24 40
e 25 27
e 25 29
e 25 33
e 25 39
e 26 30
e 26 31
e 26 33
e 26 34
e 26 35
e 26 36
e 26 39
e 26 40
e 28 30
e 28 31
e 28 32
e 28 35
e 28 36
e 29 31
e 29 32
e 29 35
e 29 36
e 30 33
e 30 34
e 30 39
e 31 34
e 32 33
e 32 38
e 33 40
e 34 39
e 35 39
e 36 38
e 36 39
e 37 39
e 39 40
